unsat
(forall ((A (_ BitVec 1))
         (B (_ BitVec 1))
         (C (_ BitVec 1))
         (D (_ BitVec 1))
         (E (_ BitVec 1))
         (F (_ BitVec 32))
         (G (_ BitVec 1))
         (H (_ BitVec 3))
         (I (_ BitVec 1))
         (J (_ BitVec 32))
         (K (_ BitVec 1))
         (L (_ BitVec 1))
         (M (_ BitVec 1))
         (N (_ BitVec 22))
         (O (_ BitVec 1))
         (P (_ BitVec 2))
         (Q (_ BitVec 1))
         (R (_ BitVec 6))
         (S (_ BitVec 6))
         (T (_ BitVec 1))
         (U (_ BitVec 1))
         (V (_ BitVec 1))
         (W (_ BitVec 1))
         (X (_ BitVec 1))
         (Y (_ BitVec 1))
         (Z (_ BitVec 34))
         (A1 (_ BitVec 1))
         (B1 (_ BitVec 1))
         (C1 (_ BitVec 1))
         (D1 (_ BitVec 2))
         (E1 (_ BitVec 6))
         (F1 (_ BitVec 2))
         (G1 (_ BitVec 10))
         (H1 (_ BitVec 1))
         (I1 (_ BitVec 1))
         (J1 (_ BitVec 1))
         (K1 (_ BitVec 1))
         (L1 (_ BitVec 1))
         (M1 (_ BitVec 1))
         (N1 (_ BitVec 22))
         (O1 (_ BitVec 1))
         (P1 (_ BitVec 1))
         (Q1 (_ BitVec 32))
         (R1 (_ BitVec 1))
         (S1 (_ BitVec 1))
         (T1 (_ BitVec 1))
         (U1 (_ BitVec 1))
         (V1 (_ BitVec 1))
         (W1 (_ BitVec 1))
         (X1 (_ BitVec 1))
         (Y1 (_ BitVec 32))
         (Z1 (_ BitVec 1))
         (A2 (_ BitVec 2))
         (B2 (_ BitVec 1))
         (C2 (_ BitVec 22))
         (D2 (_ BitVec 1)))
  (! (let ((a!1 (and (= ((_ extract 8 8) G1) #b0)
                     (= ((_ extract 7 7) G1) #b0)
                     (= ((_ extract 6 6) G1) #b0)
                     (= ((_ extract 5 5) G1) #b0)
                     (= ((_ extract 4 4) G1) #b0)
                     (= ((_ extract 3 3) G1) #b0)
                     (= ((_ extract 2 2) G1) #b0)
                     (= ((_ extract 1 1) G1) #b0)
                     (= ((_ extract 0 0) G1) #b0)
                     (= ((_ extract 9 9) G1) #b0)))
           (a!2 (not (= Q1
                        (concat ((_ extract 31 17) Q1)
                                ((_ extract 15 7) Q1)
                                ((_ extract 7 0) Q1)))))
           (a!3 (or (not (= ((_ extract 11 11) Q1) #b1))
                    (not (= ((_ extract 12 12) J) #b0))
                    (= O1 #b0)))
           (a!4 (or ((_ bit2bool 0) P1)
                    (not (= A1 #b0))
                    (not ((_ bit2bool 0) C1))
                    (not (= ((_ extract 1 1) H) #b1))))
           (a!5 (or (not (= ((_ extract 5 5) E1) #b0))
                    (not (= ((_ extract 0 0) E1) #b0))
                    (not (= ((_ extract 1 1) E1) #b0))
                    (not (= ((_ extract 2 2) E1) #b0))
                    (not (= ((_ extract 4 4) E1) #b0))
                    (not (= ((_ extract 3 3) E1) #b0))))
           (a!8 (or (not (= ((_ extract 1 1) D1) #b1))
                    (ite (= Q #b1)
                         (= ((_ extract 6 6) G1) #b0)
                         (= ((_ extract 7 7) G1) #b0))))
           (a!9 (or (not ((_ bit2bool 7) G1))
                    (not (= ((_ extract 1 1) D1) #b1))
                    (not ((_ bit2bool 0) B1))))
           (a!10 (or (= D1 #b00)
                     (ite (= Q #b1)
                          (= ((_ extract 7 7) G1) #b0)
                          (= ((_ extract 8 8) G1) #b0)))))
     (let ((a!6 (ite (or (= Q #b0) (not a!5)) E1 (bvadd #b111111 E1))))
     (let ((a!7 (or ((_ bit2bool 0) a!6)
                    (ite (= Q #b1)
                         (= ((_ extract 1 1) G1) #b0)
                         (= ((_ extract 2 2) G1) #b0))
                    ((_ bit2bool 3) a!6)))
           (a!11 (or ((_ bit2bool 0) a!6)
                     ((_ bit2bool 3) a!6)
                     ((_ bit2bool 2) a!6)
                     (ite (= Q #b1)
                          (= ((_ extract 5 5) G1) #b0)
                          (= ((_ extract 6 6) G1) #b0))
                     ((_ bit2bool 5) a!6)
                     ((_ bit2bool 4) a!6))))
     (let ((a!12 (and (or (not ((_ bit2bool 9) G1)) (= B1 #b0))
                      (= W #b0)
                      (or (not ((_ bit2bool 0) G1)) (= D1 #b00))
                      (or (not (= V #b1)) (not ((_ bit2bool 0) G1)))
                      (or (not ((_ bit2bool 1) G1)) (= L #b1))
                      (or a!1 (not (= O1 #b0)))
                      (or (not ((_ bit2bool 1) G1)) (= D1 #b00))
                      (or (= Q #b0) (= H #b000))
                      (or (not (= V #b1)) (not ((_ bit2bool 1) G1)))
                      (or (not ((_ bit2bool 1) G1)) (not ((_ bit2bool 11) Q1)))
                      (or (not (= M1 #b1)) (= ((_ extract 0 0) H) #b1))
                      (or ((_ bit2bool 0) M)
                          ((_ bit2bool 0) P1)
                          (not (= A1 #b0))
                          (not (= T #b1))
                          (not (= C1 #b1)))
                      (or (not ((_ bit2bool 0) G1)) (not (= V1 #b0)))
                      (or (= E1 #b000000)
                          (not ((_ bit2bool 1) G1))
                          (not (= T #b1)))
                      (or (not ((_ bit2bool 0) J1)) (not (= G #b1)))
                      (or (not ((_ bit2bool 32) Z)) (= L #b1))
                      (or (= Q #b0)
                          ((_ bit2bool 0) P1)
                          (not (= O1 #b1))
                          (not ((_ bit2bool 0) C1)))
                      (or (not ((_ bit2bool 0) G1))
                          (= ((_ extract 0 0) E1) #b1))
                      (or ((_ bit2bool 0) T1) (not ((_ bit2bool 1) G1)))
                      (or (not ((_ bit2bool 0) G1))
                          (= ((_ extract 3 3) E1) #b1))
                      (or (not ((_ bit2bool 0) G1)) (not (= T1 #b0)))
                      (or (not ((_ bit2bool 1) G1)) a!2)
                      (or (not ((_ bit2bool 0) G1)) (not (= B1 #b1)))
                      (or (not ((_ bit2bool 1) G1)) (not (= V1 #b0)))
                      (or (not ((_ bit2bool 1) G1))
                          (= ((_ extract 3 3) E1) #b1))
                      (or (= B1 #b0) (not ((_ bit2bool 1) G1)))
                      (or ((_ bit2bool 0) A1) (not (= G #b1)))
                      (or (not (= M1 #b1)) (not (= O1 #b1)))
                      (or ((_ bit2bool 0) T1) (not ((_ bit2bool 2) G1)))
                      (or (not ((_ bit2bool 2) G1)) (not (= T #b1)))
                      (or (not (= V #b1)) (not ((_ bit2bool 2) G1)))
                      (or (not (= O1 #b1))
                          (not (= E1 #b000000))
                          (not (= T1 #b1)))
                      (or (= D1 #b00)
                          (not (= M #b0))
                          (not (= O1 #b1))
                          (not (= V #b0)))
                      (or (not ((_ bit2bool 2) G1)) (not (= V1 #b0)))
                      (or ((_ bit2bool 0) P1)
                          ((_ bit2bool 0) T1)
                          (not ((_ bit2bool 0) C1)))
                      (or (not ((_ bit2bool 2) G1)) (= D1 #b00))
                      (or ((_ bit2bool 0) L)
                          (not ((_ bit2bool 2) G1))
                          (not (= T #b0)))
                      (or (not (= V #b1)) (not ((_ bit2bool 3) G1)))
                      (or (not ((_ bit2bool 2) G1)) (not (= B1 #b1)))
                      (or (not ((_ bit2bool 3) G1)) (not (= V1 #b0)))
                      (or (not (= V #b1)) (not ((_ bit2bool 4) G1)))
                      (or (= E1 #b000000)
                          (not (= A1 #b0))
                          (not (= J1 #b1))
                          (not (= T #b1))
                          (not (= V #b0))
                          (= ((_ extract 10 10) J) #b0))
                      (or (= E1 #b000000)
                          (not ((_ bit2bool 4) G1))
                          ((_ bit2bool 0) T1))
                      (or (not (= Q #b1))
                          (not ((_ bit2bool 0) T1))
                          (not (= T #b1)))
                      (or (not ((_ bit2bool 1) H)) (not ((_ bit2bool 2) H)))
                      (or (not ((_ bit2bool 3) G1)) (not (= T #b1)))
                      (or ((_ bit2bool 0) H) (= Y #b0))
                      (or (= ((_ extract 3 3) G1) #b0)
                          (= D1 #b00)
                          (not (= V #b0)))
                      (or (not ((_ bit2bool 3) G1)) (not (= T1 #b0)))
                      (or (not ((_ bit2bool 3) G1)) (not (= L #b0)))
                      (or (not ((_ bit2bool 3) G1)) (not (= B1 #b1)))
                      a!3
                      (or (not ((_ bit2bool 4) G1)) (not (= V1 #b0)))
                      (or (not ((_ bit2bool 3) G1)) a!2)
                      (or (not (= K #b0)) (not (= G #b1)))
                      (or (= Y #b0) (= ((_ extract 1 1) H) #b1))
                      (or ((_ bit2bool 0) P1)
                          (not (= O1 #b1))
                          (= Y #b0)
                          (not ((_ bit2bool 0) C1)))
                      (or (not (= H #b001)) (not (= K1 #b0)))
                      (or (= Q #b0)
                          (not ((_ bit2bool 2) G1))
                          ((_ bit2bool 0) H1)
                          (not ((_ bit2bool 0) P1)))
                      (or (not (= H #b001))
                          ((_ bit2bool 0) P1)
                          (not (= A1 #b0))
                          (not ((_ bit2bool 0) C1)))
                      a!4
                      (or ((_ bit2bool 0) P1)
                          (not ((_ bit2bool 3) G1))
                          (not (= H #b010)))
                      (or (not (= H #b001))
                          (not ((_ bit2bool 3) G1))
                          (not (= P1 #b0)))
                      (or ((_ bit2bool 0) H1)
                          (not ((_ bit2bool 3) G1))
                          (not (= H #b000)))
                      (or ((_ bit2bool 0) P1)
                          (not (= T #b0))
                          (not ((_ bit2bool 0) B1))
                          (not (= C1 #b1)))
                      (or (not (= Y #b0)) (not (= H #b011)))
                      (or ((_ bit2bool 0) P1)
                          (not (= A1 #b0))
                          (not (= H #b010)))
                      (or (not (= H #b001))
                          (not (= A1 #b0))
                          (not ((_ bit2bool 2) G1))
                          (not (= P1 #b0)))
                      (or (= Q #b0)
                          ((_ bit2bool 0) P1)
                          (not ((_ bit2bool 2) G1))
                          (= A1 #b1))
                      (or (= ((_ extract 4 4) G1) #b0)
                          (not (= T1 #b1))
                          (not ((_ bit2bool 0) B1)))
                      (or (= H #b001) (= K1 #b0))
                      (or (not ((_ bit2bool 0) H1)) (not (= Q #b0)))
                      (or (not ((_ bit2bool 4) G1)) a!2)
                      (or (not ((_ bit2bool 4) G1)) (not (= L #b0)))
                      (or (not (= V #b1)) (not ((_ bit2bool 5) G1)))
                      (or (= E1 #b000000)
                          (not ((_ bit2bool 5) G1))
                          ((_ bit2bool 0) T1))
                      (or (not (= H #b001))
                          (not ((_ bit2bool 4) G1))
                          (not (= A1 #b0))
                          (not (= P1 #b0)))
                      (or (= Q #b0)
                          (not ((_ bit2bool 4) G1))
                          (not (= A1 #b0))
                          ((_ bit2bool 0) H1))
                      (or ((_ bit2bool 0) V1) (not ((_ bit2bool 5) G1)))
                      (or (= Q #b0)
                          (not (= A1 #b0))
                          (not ((_ bit2bool 32) Z))
                          (not (= O1 #b1))
                          ((_ bit2bool 0) T1))
                      (or (= ((_ extract 5 5) G1) #b0)
                          (not ((_ bit2bool 0) B1)))
                      (or ((_ bit2bool 0) P1)
                          (not ((_ bit2bool 3) G1))
                          (not (= Q #b1)))
                      (or (not ((_ bit2bool 2) G1))
                          ((_ bit2bool 2) E1)
                          ((_ bit2bool 3) E1))
                      (or (not (= E1 #b000010)) (not ((_ bit2bool 3) G1)))
                      (or (not (= E1 #b000001)) (not ((_ bit2bool 4) G1)))
                      (or (not ((_ bit2bool 5) G1))
                          (not (= A1 #b0))
                          (not (= T #b1)))
                      (or (not ((_ bit2bool 4) G1)) (not (= T #b1)))
                      (or (not (= M #b0))
                          (not (= O1 #b1))
                          (not ((_ bit2bool 16) Q1)))
                      (or (not ((_ bit2bool 5) G1)) (not (= E1 #b000000)))
                      (or (= D1 #b00)
                          (not (= K #b0))
                          (not (= O1 #b1))
                          (not (= V #b0)))
                      (or ((_ bit2bool 0) V1) (= ((_ extract 6 6) G1) #b0))
                      (or (not (= V #b1)) (not ((_ bit2bool 6) G1)))
                      (or (not ((_ bit2bool 6) G1)) (not (= V #b0)) (= D1 #b00))
                      (or ((_ bit2bool 12) Q1) (not ((_ bit2bool 6) G1)))
                      (or (= E1 #b000000)
                          (not ((_ bit2bool 6) G1))
                          (not (= T1 #b0)))
                      (or (not ((_ bit2bool 5) G1))
                          (not (= H #b001))
                          (not (= A1 #b0))
                          (not (= P1 #b0)))
                      (or (= Q #b0)
                          (not ((_ bit2bool 5) G1))
                          (not (= A1 #b0))
                          ((_ bit2bool 0) H1))
                      (or (not ((_ bit2bool 5) G1)) (= D1 #b00))
                      (or ((_ bit2bool 0) L) (not ((_ bit2bool 5) G1)))
                      (or (not ((_ bit2bool 6) G1)) (= L #b1))
                      (or (= H #b000)
                          ((_ bit2bool 0) P1)
                          (not (= J1 #b1))
                          ((_ bit2bool 0) H)
                          (not ((_ bit2bool 0) C1)))
                      a!7
                      (or (not ((_ bit2bool 3) G1)) (not (= E1 #b000011)))
                      (or (not (= E1 #b000010)) (= ((_ extract 4 4) G1) #b0))
                      (or (not (= E1 #b000001)) (= ((_ extract 5 5) G1) #b0))
                      (or (not ((_ bit2bool 6) G1)) (not (= E1 #b000000)))
                      a!8
                      a!9
                      (or (not ((_ bit2bool 6) G1)) (not (= T #b1)))
                      (or (= ((_ extract 6 6) G1) #b0) (not (= B1 #b1)))
                      (or (= ((_ extract 7 7) G1) #b0) (= D1 #b00))
                      (or (= ((_ extract 7 7) G1) #b0)
                          (not (= T #b0))
                          (not ((_ bit2bool 0) B1)))
                      (or (= ((_ extract 7 7) G1) #b0) (not (= L #b0)))
                      (or (not (= T #b1))
                          (= E1 #b000000)
                          (= ((_ extract 7 7) G1) #b0))
                      (or (not (= V #b1)) (= ((_ extract 7 7) G1) #b0))
                      (or (not (= J1 #b1)) (not (= H #b010)) (= P1 #b1))
                      (or (not ((_ bit2bool 6) G1))
                          (not (= H #b010))
                          (= P1 #b1))
                      (or (not (= H #b001))
                          (not ((_ bit2bool 6) G1))
                          ((_ bit2bool 0) P1))
                      (or (= Q #b0)
                          (not ((_ bit2bool 6) G1))
                          ((_ bit2bool 0) H1))
                      (or (= ((_ extract 5 5) G1) #b0)
                          (not (= Q #b1))
                          ((_ bit2bool 0) P1)
                          (= A1 #b1))
                      (or (= ((_ extract 4 4) G1) #b0)
                          ((_ bit2bool 0) P1)
                          (not (= H #b000))
                          (= A1 #b1))
                      (or (not ((_ bit2bool 2) G1))
                          ((_ bit2bool 1) E1)
                          ((_ bit2bool 3) E1))
                      (or (not (= E1 #b000011)) (= ((_ extract 4 4) G1) #b0))
                      (or (not (= E1 #b000010)) (= ((_ extract 5 5) G1) #b0))
                      (or (not (= E1 #b000001)) (not ((_ bit2bool 6) G1)))
                      (or (not ((_ bit2bool 8) G1)) (not (= M #b0)) (= D1 #b00))
                      (or (not (= O1 #b1)) (not (= G #b1)))
                      (or (= ((_ extract 7 7) G1) #b0) ((_ bit2bool 0) T1))
                      (or (= ((_ extract 7 7) G1) #b0)
                          (not (= H #b001))
                          (not (= A1 #b0))
                          (not (= P1 #b0)))
                      (or (= ((_ extract 7 7) G1) #b0) (not (= V1 #b0)))
                      (or (= V #b1) (= D1 #b00) (not ((_ bit2bool 8) G1)))
                      a!10
                      (or (not ((_ bit2bool 8) G1)) (not (= V1 #b0)))
                      (or a!1 (not (= K #b0)) (not ((_ bit2bool 0) B1)))
                      (or (not (= H #b001))
                          (not ((_ bit2bool 32) Z))
                          (not (= O1 #b1))
                          (not (= E1 #b000000)))
                      (or (= ((_ extract 7 7) G1) #b0)
                          (not (= Q #b1))
                          (not (= A1 #b0))
                          ((_ bit2bool 0) H1))
                      (or (= D1 #b00) (not (= M1 #b1)))
                      (or (= ((_ extract 8 8) G1) #b0) (not (= L #b0)))
                      (or (not ((_ bit2bool 0) B1))
                          (= ((_ extract 8 8) G1) #b0))
                      (or a!2 (= ((_ extract 8 8) G1) #b0))
                      (or ((_ bit2bool 0) E1)
                          (not ((_ bit2bool 2) G1))
                          ((_ bit2bool 3) E1))
                      (or (not ((_ bit2bool 3) G1))
                          ((_ bit2bool 1) E1)
                          ((_ bit2bool 3) E1))
                      (or (= ((_ extract 4 4) G1) #b0)
                          ((_ bit2bool 0) E1)
                          ((_ bit2bool 1) E1)
                          ((_ bit2bool 3) E1))
                      (or (not (= E1 #b000011)) (= ((_ extract 5 5) G1) #b0))
                      a!11
                      (or (not (= E1 #b000010))
                          (= ((_ extract 6 6) G1) #b0)
                          (not (= H #b000)))
                      (or (not (= E1 #b000001)) (= ((_ extract 7 7) G1) #b0))
                      (or ((_ bit2bool 0) T1) (not ((_ bit2bool 8) G1))))))
       (= (INV!slice!1 A
                       B
                       C
                       D
                       E
                       F
                       G
                       H
                       I
                       J
                       K
                       L
                       M
                       N
                       O
                       P
                       Q
                       R
                       S
                       T
                       U
                       V
                       W
                       X
                       Y
                       Z
                       A1
                       B1
                       C1
                       D1
                       E1
                       F1
                       G1
                       H1
                       I1
                       J1
                       K1
                       L1
                       M1
                       N1
                       O1
                       P1
                       Q1
                       R1
                       S1
                       T1
                       U1
                       V1
                       W1
                       X1
                       Y1
                       Z1
                       A2
                       B2
                       C2
                       D2)
          a!12)))))
     :weight 0))
